(set-info :smt-lib-version 2.6)
(set-logic QF_NIA)
(set-info :source |
Generated by: Cristina Borralleras, Daniel Larraz, Albert Oliveras, Enric Rodriguez-Carbonell, Albert Rubio
Generated on: 2017-04-27
Generator: VeryMax
Application: Termination proving
Target solver: barcelogic
|)
(set-info :license "https://creativecommons.org/licenses/by/4.0/")
(set-info :category "industrial")
(set-info :status sat)
(declare-fun Nl9arg11 () Int)
(declare-fun Nl9arg21 () Int)
(declare-fun Nl9arg31 () Int)
(declare-fun Nl9arg41 () Int)
(declare-fun Nl9arg51 () Int)
(declare-fun Nl9arg12 () Int)
(declare-fun Nl9arg22 () Int)
(declare-fun Nl9arg32 () Int)
(declare-fun Nl9arg42 () Int)
(declare-fun Nl9arg52 () Int)
(declare-fun lam0n0 () Int)
(declare-fun lam0n1 () Int)
(declare-fun lam0n2 () Int)
(declare-fun lam0n3 () Int)
(declare-fun lam0n4 () Int)
(declare-fun lam0n5 () Int)
(declare-fun lam0n6 () Int)
(declare-fun lam0n7 () Int)
(declare-fun UndefCntr0_CT () Int)
(declare-fun Nl9CT1 () Int)
(declare-fun Nl9CT2 () Int)
(declare-fun UndefCntr0_arg1 () Int)
(declare-fun UndefCntr0_arg2 () Int)
(declare-fun UndefCntr0_arg3 () Int)
(declare-fun UndefCntr0_arg4 () Int)
(declare-fun UndefCntr0_arg5 () Int)
(declare-fun UndefCntr0_undef121 () Int)
(declare-fun UndefCntr0_undef122 () Int)
(declare-fun UndefCntr0_undef123 () Int)
(declare-fun UndefCntr0_undef124 () Int)
(declare-fun UndefCntr0_undef125 () Int)
(declare-fun lam1n0 () Int)
(declare-fun lam1n1 () Int)
(declare-fun lam1n2 () Int)
(declare-fun lam1n3 () Int)
(declare-fun lam1n4 () Int)
(declare-fun lam1n5 () Int)
(declare-fun lam1n6 () Int)
(declare-fun lam1n7 () Int)
(declare-fun lam2n0 () Int)
(declare-fun lam2n1 () Int)
(declare-fun lam2n2 () Int)
(declare-fun lam2n3 () Int)
(declare-fun lam2n4 () Int)
(declare-fun lam2n5 () Int)
(declare-fun lam2n6 () Int)
(declare-fun lam2n7 () Int)
(declare-fun lam3n0 () Int)
(declare-fun lam3n1 () Int)
(declare-fun lam3n2 () Int)
(declare-fun lam3n3 () Int)
(declare-fun lam3n4 () Int)
(declare-fun lam3n5 () Int)
(declare-fun lam3n6 () Int)
(declare-fun lam3n7 () Int)
(declare-fun lam3n8 () Int)
(declare-fun lam3n9 () Int)
(declare-fun lam3n10 () Int)
(declare-fun lam3n11 () Int)
(declare-fun lam3n12 () Int)
(declare-fun lam3n13 () Int)
(declare-fun lam3n14 () Int)
(declare-fun lam3n15 () Int)
(declare-fun lam4n0 () Int)
(declare-fun lam4n1 () Int)
(declare-fun lam4n2 () Int)
(declare-fun lam4n3 () Int)
(declare-fun lam4n4 () Int)
(declare-fun lam4n5 () Int)
(declare-fun lam4n6 () Int)
(declare-fun lam4n7 () Int)
(declare-fun lam4n8 () Int)
(declare-fun lam4n9 () Int)
(declare-fun lam4n10 () Int)
(declare-fun lam4n11 () Int)
(declare-fun lam4n12 () Int)
(declare-fun lam4n13 () Int)
(declare-fun lam4n14 () Int)
(declare-fun lam4n15 () Int)
(declare-fun lam5n0 () Int)
(declare-fun lam5n1 () Int)
(declare-fun lam5n2 () Int)
(declare-fun lam5n3 () Int)
(declare-fun lam5n4 () Int)
(declare-fun lam5n5 () Int)
(declare-fun lam5n6 () Int)
(declare-fun lam5n7 () Int)
(declare-fun lam5n8 () Int)
(declare-fun lam5n9 () Int)
(declare-fun lam5n10 () Int)
(declare-fun lam5n11 () Int)
(declare-fun lam5n12 () Int)
(declare-fun lam5n13 () Int)
(declare-fun lam5n14 () Int)
(declare-fun lam5n15 () Int)
(declare-fun lam5n16 () Int)
(declare-fun lam6n0 () Int)
(declare-fun lam6n1 () Int)
(declare-fun lam6n2 () Int)
(declare-fun lam6n3 () Int)
(declare-fun lam6n4 () Int)
(declare-fun lam6n5 () Int)
(declare-fun lam6n6 () Int)
(declare-fun lam6n7 () Int)
(declare-fun lam6n8 () Int)
(declare-fun lam6n9 () Int)
(declare-fun lam6n10 () Int)
(declare-fun lam6n11 () Int)
(declare-fun lam6n12 () Int)
(declare-fun lam6n13 () Int)
(declare-fun lam6n14 () Int)
(declare-fun lam6n15 () Int)
(declare-fun lam6n16 () Int)
(declare-fun lam7n0 () Int)
(declare-fun lam7n1 () Int)
(declare-fun lam7n2 () Int)
(declare-fun lam7n3 () Int)
(declare-fun lam7n4 () Int)
(declare-fun lam7n5 () Int)
(declare-fun lam7n6 () Int)
(declare-fun lam7n7 () Int)
(declare-fun lam7n8 () Int)
(declare-fun lam7n9 () Int)
(declare-fun lam7n10 () Int)
(declare-fun lam7n11 () Int)
(declare-fun lam7n12 () Int)
(declare-fun lam8n0 () Int)
(declare-fun lam8n1 () Int)
(declare-fun lam8n2 () Int)
(declare-fun lam8n3 () Int)
(declare-fun lam8n4 () Int)
(declare-fun lam8n5 () Int)
(declare-fun lam8n6 () Int)
(declare-fun lam8n7 () Int)
(declare-fun lam8n8 () Int)
(declare-fun lam8n9 () Int)
(declare-fun lam8n10 () Int)
(declare-fun lam8n11 () Int)
(declare-fun lam8n12 () Int)
(declare-fun undef1 () Int)
(declare-fun undef14 () Int)
(declare-fun undef15 () Int)
(declare-fun undef105 () Int)
(declare-fun undef133 () Int)
(declare-fun undef2 () Int)
(declare-fun undef16 () Int)
(declare-fun undef20 () Int)
(declare-fun undef111 () Int)
(declare-fun undef106 () Int)
(declare-fun undef134 () Int)
(declare-fun undef107 () Int)
(declare-fun undef108 () Int)
(declare-fun undef109 () Int)
(declare-fun undef28 () Int)
(declare-fun undef29 () Int)
(declare-fun undef34 () Int)
(declare-fun undef35 () Int)
(declare-fun undef112 () Int)
(declare-fun undef118 () Int)
(declare-fun undef119 () Int)
(declare-fun undef113 () Int)
(declare-fun undef120 () Int)
(declare-fun undef114 () Int)
(declare-fun undef115 () Int)
(declare-fun undef116 () Int)
(declare-fun FV_arg1_1 () Int)
(declare-fun FV_arg2_1 () Int)
(declare-fun FV_arg3_1 () Int)
(declare-fun FV_arg4_1 () Int)
(declare-fun FV_arg5_1 () Int)
(declare-fun FV_undef121_0 () Int)
(declare-fun FV_undef122_0 () Int)
(declare-fun FV_arg1_0 () Int)
(declare-fun FV_arg2_0 () Int)
(declare-fun FV_arg3_0 () Int)
(declare-fun FV_arg4_0 () Int)
(declare-fun FV_arg5_0 () Int)
(declare-fun FV_undef123_0 () Int)
(declare-fun FV_undef124_0 () Int)
(declare-fun FV_undef125_0 () Int)
(declare-fun lam9n0 () Int)
(declare-fun lam9n1 () Int)
(declare-fun lam9n2 () Int)
(declare-fun lam9n3 () Int)
(declare-fun lam9n4 () Int)
(declare-fun lam10n0 () Int)
(declare-fun lam10n1 () Int)
(declare-fun lam10n2 () Int)
(declare-fun lam10n3 () Int)
(declare-fun FV_arg2_2 () Int)
(declare-fun FV_arg1_2 () Int)
(declare-fun FV_arg3_2 () Int)
(declare-fun FV_arg4_2 () Int)
(declare-fun FV_arg5_2 () Int)
(declare-fun FV_undef121_2 () Int)
(declare-fun FV_undef122_2 () Int)
(assert ( and ( <= ( - 1 ) Nl9arg11 ) ( <= Nl9arg11 1 ) ( <= ( - 1 ) Nl9arg21 ) ( <= Nl9arg21 1 ) ( <= ( - 1 ) Nl9arg31 ) ( <= Nl9arg31 1 ) ( <= ( - 1 ) Nl9arg41 ) ( <= Nl9arg41 1 ) ( <= ( - 1 ) Nl9arg51 ) ( <= Nl9arg51 1 ) ( <= ( - 1 ) Nl9arg12 ) ( <= Nl9arg12 1 ) ( <= ( - 1 ) Nl9arg22 ) ( <= Nl9arg22 1 ) ( <= ( - 1 ) Nl9arg32 ) ( <= Nl9arg32 1 ) ( <= ( - 1 ) Nl9arg42 ) ( <= Nl9arg42 1 ) ( <= ( - 1 ) Nl9arg52 ) ( <= Nl9arg52 1 ) ))
(assert ( or ( and ( >= lam0n0 0 ) ( >= lam0n1 0 ) ( >= lam0n2 0 ) ( >= lam0n3 0 ) ( >= lam0n4 0 ) ( >= lam0n5 0 ) ( >= lam0n6 0 ) ( >= lam0n7 0 ) ( > ( + ( * 1 lam0n0 ) ( * 1 lam0n1 ) ( * 1 lam0n2 ) ( * 2 lam0n3 ) ( * 3 lam0n4 ) ( * UndefCntr0_CT lam0n5 ) ( * Nl9CT1 lam0n6 ) ( * Nl9CT2 lam0n7 ) ( - 1 ) ) 0 ) ( = ( + ( * ( - 1 ) lam0n3 ) ( * ( - 1 ) lam0n4 ) ( * UndefCntr0_arg1 lam0n5 ) ( * Nl9arg11 lam0n6 ) ( * Nl9arg12 lam0n7 ) ) 0 ) ( = ( + ( * ( - 1 ) lam0n0 ) ( * UndefCntr0_arg2 lam0n5 ) ( * Nl9arg21 lam0n6 ) ( * Nl9arg22 lam0n7 ) ) 0 ) ( = ( + ( * 1 lam0n3 ) ( * UndefCntr0_arg3 lam0n5 ) ( * Nl9arg31 lam0n6 ) ( * Nl9arg32 lam0n7 ) ) 0 ) ( = ( + ( * UndefCntr0_arg4 lam0n5 ) ( * Nl9arg41 lam0n6 ) ( * Nl9arg42 lam0n7 ) ) 0 ) ( = ( + ( * UndefCntr0_arg5 lam0n5 ) ( * Nl9arg51 lam0n6 ) ( * Nl9arg52 lam0n7 ) ) 0 ) ( = ( + ( * ( - 1 ) lam0n1 ) ( * UndefCntr0_undef121 lam0n5 ) ) 0 ) ( = ( + ( * ( - 1 ) lam0n2 ) ( * UndefCntr0_undef122 lam0n5 ) ) 0 ) ( = ( * UndefCntr0_undef123 lam0n5 ) 0 ) ( = ( * UndefCntr0_undef124 lam0n5 ) 0 ) ( = ( * UndefCntr0_undef125 lam0n5 ) 0 ) ) ( and ( >= lam1n0 0 ) ( >= lam1n1 0 ) ( >= lam1n2 0 ) ( >= lam1n3 0 ) ( >= lam1n4 0 ) ( >= lam1n5 0 ) ( >= lam1n6 0 ) ( >= lam1n7 0 ) ( > ( + ( * 1 lam1n0 ) ( * 1 lam1n1 ) ( * 1 lam1n2 ) ( * 2 lam1n3 ) ( * 3 lam1n4 ) ( * UndefCntr0_CT lam1n5 ) ( * Nl9CT1 lam1n6 ) ( * Nl9CT2 lam1n7 ) ( - 1 ( + ( + ( + ( + ( + Nl9CT1 ( * Nl9arg11 0 ) ) ( * Nl9arg21 0 ) ) ( * Nl9arg31 0 ) ) ( * Nl9arg41 0 ) ) ( * Nl9arg51 0 ) ) ) ) 0 ) ( = ( + ( * ( - 1 ) lam1n3 ) ( * ( - 1 ) lam1n4 ) ( * UndefCntr0_arg1 lam1n5 ) ( * Nl9arg11 lam1n6 ) ( * Nl9arg12 lam1n7 ) ) 0 ) ( = ( + ( * ( - 1 ) lam1n0 ) ( * UndefCntr0_arg2 lam1n5 ) ( * Nl9arg21 lam1n6 ) ( * Nl9arg22 lam1n7 ) ) 0 ) ( = ( + ( * 1 lam1n3 ) ( * UndefCntr0_arg3 lam1n5 ) ( * Nl9arg31 lam1n6 ) ( * Nl9arg32 lam1n7 ) ) 0 ) ( = ( + ( * UndefCntr0_arg4 lam1n5 ) ( * Nl9arg41 lam1n6 ) ( * Nl9arg42 lam1n7 ) ) 0 ) ( = ( + ( * UndefCntr0_arg5 lam1n5 ) ( * Nl9arg51 lam1n6 ) ( * Nl9arg52 lam1n7 ) ) 0 ) ( = ( + ( * ( - 1 ) lam1n1 ) ( * UndefCntr0_undef121 lam1n5 ) ( - ( + 0 ( * Nl9arg11 1 ) ) ) ) 0 ) ( = ( + ( * ( - 1 ) lam1n2 ) ( * UndefCntr0_undef122 lam1n5 ) ( - ( + 0 ( * Nl9arg21 1 ) ) ) ) 0 ) ( = ( + ( * UndefCntr0_undef123 lam1n5 ) ( - ( + 0 ( * Nl9arg31 1 ) ) ) ) 0 ) ( = ( + ( * UndefCntr0_undef124 lam1n5 ) ( - ( + 0 ( * Nl9arg41 1 ) ) ) ) 0 ) ( = ( + ( * UndefCntr0_undef125 lam1n5 ) ( - ( + 0 ( * Nl9arg51 1 ) ) ) ) 0 ) ) ))
(assert ( or ( and ( >= lam0n0 0 ) ( >= lam0n1 0 ) ( >= lam0n2 0 ) ( >= lam0n3 0 ) ( >= lam0n4 0 ) ( >= lam0n5 0 ) ( >= lam0n6 0 ) ( >= lam0n7 0 ) ( > ( + ( * 1 lam0n0 ) ( * 1 lam0n1 ) ( * 1 lam0n2 ) ( * 2 lam0n3 ) ( * 3 lam0n4 ) ( * UndefCntr0_CT lam0n5 ) ( * Nl9CT1 lam0n6 ) ( * Nl9CT2 lam0n7 ) ( - 1 ) ) 0 ) ( = ( + ( * ( - 1 ) lam0n3 ) ( * ( - 1 ) lam0n4 ) ( * UndefCntr0_arg1 lam0n5 ) ( * Nl9arg11 lam0n6 ) ( * Nl9arg12 lam0n7 ) ) 0 ) ( = ( + ( * ( - 1 ) lam0n0 ) ( * UndefCntr0_arg2 lam0n5 ) ( * Nl9arg21 lam0n6 ) ( * Nl9arg22 lam0n7 ) ) 0 ) ( = ( + ( * 1 lam0n3 ) ( * UndefCntr0_arg3 lam0n5 ) ( * Nl9arg31 lam0n6 ) ( * Nl9arg32 lam0n7 ) ) 0 ) ( = ( + ( * UndefCntr0_arg4 lam0n5 ) ( * Nl9arg41 lam0n6 ) ( * Nl9arg42 lam0n7 ) ) 0 ) ( = ( + ( * UndefCntr0_arg5 lam0n5 ) ( * Nl9arg51 lam0n6 ) ( * Nl9arg52 lam0n7 ) ) 0 ) ( = ( + ( * ( - 1 ) lam0n1 ) ( * UndefCntr0_undef121 lam0n5 ) ) 0 ) ( = ( + ( * ( - 1 ) lam0n2 ) ( * UndefCntr0_undef122 lam0n5 ) ) 0 ) ( = ( * UndefCntr0_undef123 lam0n5 ) 0 ) ( = ( * UndefCntr0_undef124 lam0n5 ) 0 ) ( = ( * UndefCntr0_undef125 lam0n5 ) 0 ) ) ( and ( >= lam2n0 0 ) ( >= lam2n1 0 ) ( >= lam2n2 0 ) ( >= lam2n3 0 ) ( >= lam2n4 0 ) ( >= lam2n5 0 ) ( >= lam2n6 0 ) ( >= lam2n7 0 ) ( > ( + ( * 1 lam2n0 ) ( * 1 lam2n1 ) ( * 1 lam2n2 ) ( * 2 lam2n3 ) ( * 3 lam2n4 ) ( * UndefCntr0_CT lam2n5 ) ( * Nl9CT1 lam2n6 ) ( * Nl9CT2 lam2n7 ) ( - 1 ( + ( + ( + ( + ( + Nl9CT2 ( * Nl9arg12 0 ) ) ( * Nl9arg22 0 ) ) ( * Nl9arg32 0 ) ) ( * Nl9arg42 0 ) ) ( * Nl9arg52 0 ) ) ) ) 0 ) ( = ( + ( * ( - 1 ) lam2n3 ) ( * ( - 1 ) lam2n4 ) ( * UndefCntr0_arg1 lam2n5 ) ( * Nl9arg11 lam2n6 ) ( * Nl9arg12 lam2n7 ) ) 0 ) ( = ( + ( * ( - 1 ) lam2n0 ) ( * UndefCntr0_arg2 lam2n5 ) ( * Nl9arg21 lam2n6 ) ( * Nl9arg22 lam2n7 ) ) 0 ) ( = ( + ( * 1 lam2n3 ) ( * UndefCntr0_arg3 lam2n5 ) ( * Nl9arg31 lam2n6 ) ( * Nl9arg32 lam2n7 ) ) 0 ) ( = ( + ( * UndefCntr0_arg4 lam2n5 ) ( * Nl9arg41 lam2n6 ) ( * Nl9arg42 lam2n7 ) ) 0 ) ( = ( + ( * UndefCntr0_arg5 lam2n5 ) ( * Nl9arg51 lam2n6 ) ( * Nl9arg52 lam2n7 ) ) 0 ) ( = ( + ( * ( - 1 ) lam2n1 ) ( * UndefCntr0_undef121 lam2n5 ) ( - ( + 0 ( * Nl9arg12 1 ) ) ) ) 0 ) ( = ( + ( * ( - 1 ) lam2n2 ) ( * UndefCntr0_undef122 lam2n5 ) ( - ( + 0 ( * Nl9arg22 1 ) ) ) ) 0 ) ( = ( + ( * UndefCntr0_undef123 lam2n5 ) ( - ( + 0 ( * Nl9arg32 1 ) ) ) ) 0 ) ( = ( + ( * UndefCntr0_undef124 lam2n5 ) ( - ( + 0 ( * Nl9arg42 1 ) ) ) ) 0 ) ( = ( + ( * UndefCntr0_undef125 lam2n5 ) ( - ( + 0 ( * Nl9arg52 1 ) ) ) ) 0 ) ) ))
(assert ( and ( <= ( + Nl9CT1 ( * Nl9arg11 FV_arg1_1 ) ( * Nl9arg21 FV_arg2_1 ) ( * Nl9arg31 FV_arg3_1 ) ( * Nl9arg41 FV_arg4_1 ) ( * Nl9arg51 FV_arg5_1 ) ) 0 ) ( <= ( + Nl9CT2 ( * Nl9arg12 FV_arg1_1 ) ( * Nl9arg22 FV_arg2_1 ) ( * Nl9arg32 FV_arg3_1 ) ( * Nl9arg42 FV_arg4_1 ) ( * Nl9arg52 FV_arg5_1 ) ) 0 ) ( <= ( + 1 ( * ( - 1 ) FV_arg2_1 ) ) 0 ) ))
(assert ( or ( not ( = UndefCntr0_arg1 0 ) ) ( not ( = UndefCntr0_arg2 0 ) ) ( not ( = UndefCntr0_arg3 0 ) ) ( not ( = UndefCntr0_arg4 0 ) ) ( not ( = UndefCntr0_arg5 0 ) ) ( not ( = UndefCntr0_undef121 0 ) ) ( not ( = UndefCntr0_undef122 0 ) ) ( not ( = UndefCntr0_undef123 0 ) ) ( not ( = UndefCntr0_undef124 0 ) ) ( not ( = UndefCntr0_undef125 0 ) ) ( = UndefCntr0_CT 0 ) ))
(assert ( or ( and ( = UndefCntr0_arg1 0 ) ( = UndefCntr0_arg2 0 ) ( = UndefCntr0_arg3 0 ) ( = UndefCntr0_arg4 0 ) ( = UndefCntr0_arg5 0 ) ) ( or ( not ( = UndefCntr0_undef121 0 ) ) ( not ( = UndefCntr0_undef122 0 ) ) ( not ( = UndefCntr0_undef123 0 ) ) ( not ( = UndefCntr0_undef124 0 ) ) ( not ( = UndefCntr0_undef125 0 ) ) ) ))
(assert ( or ( = UndefCntr0_undef121 0 ) ( and ( and ( = UndefCntr0_arg1 0 ) ( = UndefCntr0_arg2 0 ) ( = UndefCntr0_arg3 0 ) ( = UndefCntr0_arg4 0 ) ( = UndefCntr0_arg5 0 ) ( = UndefCntr0_undef123 0 ) ( = UndefCntr0_undef124 0 ) ( = UndefCntr0_undef125 0 ) ( = UndefCntr0_undef122 0 ) ) ( or ( and ( <= ( + 1 ( * ( - 1 ) FV_undef121_0 ) ) 0 ) ( <= ( + UndefCntr0_CT ( * UndefCntr0_undef121 FV_undef121_0 ) ( * UndefCntr0_undef122 FV_undef122_0 ) ( * UndefCntr0_arg1 FV_arg1_0 ) ( * UndefCntr0_arg2 FV_arg2_0 ) ( * UndefCntr0_arg3 FV_arg3_0 ) ( * UndefCntr0_arg4 FV_arg4_0 ) ( * UndefCntr0_arg5 FV_arg5_0 ) ( * UndefCntr0_undef123 FV_undef123_0 ) ( * UndefCntr0_undef124 FV_undef124_0 ) ( * UndefCntr0_undef125 FV_undef125_0 ) ) 0 ) ) ( and ( <= ( + 1 ( * ( - 1 ) FV_undef121_0 ) ) 0 ) ( <= ( + UndefCntr0_CT ( * UndefCntr0_undef121 FV_undef121_0 ) ( * UndefCntr0_undef122 FV_undef122_0 ) ( * UndefCntr0_arg1 FV_arg1_0 ) ( * UndefCntr0_arg2 FV_arg2_0 ) ( * UndefCntr0_arg3 FV_arg3_0 ) ( * UndefCntr0_arg4 FV_arg4_0 ) ( * UndefCntr0_arg5 FV_arg5_0 ) ( * UndefCntr0_undef123 FV_undef123_0 ) ( * UndefCntr0_undef124 FV_undef124_0 ) ( * UndefCntr0_undef125 FV_undef125_0 ) ) 0 ) ) ) ) ))
(assert ( or ( = UndefCntr0_undef122 0 ) ( and ( and ( = UndefCntr0_arg1 0 ) ( = UndefCntr0_arg2 0 ) ( = UndefCntr0_arg3 0 ) ( = UndefCntr0_arg4 0 ) ( = UndefCntr0_arg5 0 ) ( = UndefCntr0_undef123 0 ) ( = UndefCntr0_undef124 0 ) ( = UndefCntr0_undef125 0 ) ( = UndefCntr0_undef121 0 ) ) ( or ( and ( <= ( + 1 ( * ( - 1 ) FV_undef122_0 ) ) 0 ) ( <= ( + UndefCntr0_CT ( * UndefCntr0_undef121 FV_undef121_0 ) ( * UndefCntr0_undef122 FV_undef122_0 ) ( * UndefCntr0_arg1 FV_arg1_0 ) ( * UndefCntr0_arg2 FV_arg2_0 ) ( * UndefCntr0_arg3 FV_arg3_0 ) ( * UndefCntr0_arg4 FV_arg4_0 ) ( * UndefCntr0_arg5 FV_arg5_0 ) ( * UndefCntr0_undef123 FV_undef123_0 ) ( * UndefCntr0_undef124 FV_undef124_0 ) ( * UndefCntr0_undef125 FV_undef125_0 ) ) 0 ) ) ( and ( <= ( + 1 ( * ( - 1 ) FV_undef122_0 ) ) 0 ) ( <= ( + UndefCntr0_CT ( * UndefCntr0_undef121 FV_undef121_0 ) ( * UndefCntr0_undef122 FV_undef122_0 ) ( * UndefCntr0_arg1 FV_arg1_0 ) ( * UndefCntr0_arg2 FV_arg2_0 ) ( * UndefCntr0_arg3 FV_arg3_0 ) ( * UndefCntr0_arg4 FV_arg4_0 ) ( * UndefCntr0_arg5 FV_arg5_0 ) ( * UndefCntr0_undef123 FV_undef123_0 ) ( * UndefCntr0_undef124 FV_undef124_0 ) ( * UndefCntr0_undef125 FV_undef125_0 ) ) 0 ) ) ) ) ))
(assert ( or ( and ( >= lam9n0 0 ) ( >= lam9n1 0 ) ( >= lam9n2 0 ) ( >= lam9n3 0 ) ( >= lam9n4 0 ) ( > ( + ( * 1 lam9n0 ) ( * 2 lam9n1 ) ( * ( - 2 ) lam9n2 ) ( * Nl9CT1 lam9n3 ) ( * Nl9CT2 lam9n4 ) ( - 1 ) ) 0 ) ( = ( + ( * ( - 1 ) lam9n1 ) ( * 1 lam9n2 ) ( * Nl9arg11 lam9n3 ) ( * Nl9arg12 lam9n4 ) ) 0 ) ( = ( + ( * ( - 1 ) lam9n0 ) ( * Nl9arg21 lam9n3 ) ( * Nl9arg22 lam9n4 ) ) 0 ) ( = ( + ( * 1 lam9n1 ) ( * Nl9arg31 lam9n3 ) ( * Nl9arg32 lam9n4 ) ) 0 ) ( = ( + ( * Nl9arg41 lam9n3 ) ( * Nl9arg42 lam9n4 ) ) 0 ) ( = ( + ( * Nl9arg51 lam9n3 ) ( * Nl9arg52 lam9n4 ) ) 0 ) ) ( and ( >= lam10n0 0 ) ( >= lam10n1 0 ) ( >= lam10n2 0 ) ( >= lam10n3 0 ) ( > ( + ( * 1 lam10n0 ) ( * ( - 1 ) lam10n1 ) ( * Nl9CT1 lam10n2 ) ( * Nl9CT2 lam10n3 ) ( - 1 ) ) 0 ) ( = ( + ( * 1 lam10n1 ) ( * Nl9arg11 lam10n2 ) ( * Nl9arg12 lam10n3 ) ) 0 ) ( = ( + ( * ( - 1 ) lam10n0 ) ( * Nl9arg21 lam10n2 ) ( * Nl9arg22 lam10n3 ) ) 0 ) ( = ( + ( * ( - 1 ) lam10n1 ) ( * Nl9arg31 lam10n2 ) ( * Nl9arg32 lam10n3 ) ) 0 ) ( = ( + ( * Nl9arg41 lam10n2 ) ( * Nl9arg42 lam10n3 ) ) 0 ) ( = ( + ( * Nl9arg51 lam10n2 ) ( * Nl9arg52 lam10n3 ) ) 0 ) ) ))
(assert ( and ( and ( <= ( + Nl9CT1 ( * Nl9arg21 FV_arg2_2 ) ( * Nl9arg11 FV_arg1_2 ) ( * Nl9arg31 FV_arg3_2 ) ( * Nl9arg41 FV_arg4_2 ) ( * Nl9arg51 FV_arg5_2 ) ) 0 ) ( <= ( + Nl9CT2 ( * Nl9arg22 FV_arg2_2 ) ( * Nl9arg12 FV_arg1_2 ) ( * Nl9arg32 FV_arg3_2 ) ( * Nl9arg42 FV_arg4_2 ) ( * Nl9arg52 FV_arg5_2 ) ) 0 ) ) ( and ( <= ( + 1 ( * ( - 1 ) FV_arg2_2 ) ) 0 ) ( <= ( + 1 ( * ( - 1 ) FV_undef121_2 ) ) 0 ) ( <= ( + 1 ( * ( - 1 ) FV_undef122_2 ) ) 0 ) ( <= ( + 2 ( * ( - 1 ) FV_arg1_2 ) FV_arg3_2 ) 0 ) ( <= ( + 3 ( * ( - 1 ) FV_arg1_2 ) ) 0 ) ) ))
(check-sat)
(exit)
